3 100 1256
3 4 4 2 6 4 7 10 8 11
1 2 2
9
7 2
6 9
0 35.0 35.0 0.0 0.0 0 230
2 41.0 49.0 10.0 10.0 0 204 38 0 1 0 0 0 1 0 1 0 0
3 35.0 17.0 10.0 7.0 0 202 43 0 0 0 0 0 1 0 0 0 0
4 55.0 45.0 10.0 13.0 0 197 95 0 0 0 0 0 1 0 0 0 0
5 55.0 20.0 10.0 19.0 149 159 17 0 0 0 0 0 1 0 0 0 0
6 15.0 30.0 10.0 26.0 0 199 28 0 1 0 0 1 0 1 0 0 0
7 25.0 30.0 10.0 3.0 99 109 70 0 0 1 0 0 0 0 0 0 0
8 20.0 50.0 10.0 5.0 0 198 52 0 0 0 0 0 1 0 0 0 0
9 10.0 43.0 10.0 9.0 95 105 69 0 1 1 0 1 1 0 1 1 1
10 55.0 60.0 10.0 16.0 97 107 85 1 1 1 1 1 1 0 0 1 0
11 30.0 60.0 10.0 16.0 124 134 94 0 1 0 0 0 0 0 0 1 1
12 20.0 65.0 10.0 12.0 67 77 84 0 0 0 0 0 0 1 1 0 0
13 50.0 35.0 10.0 19.0 0 205 18 0 1 0 0 0 0 0 0 0 1
14 30.0 25.0 10.0 23.0 159 169 97 0 0 0 0 0 1 0 0 0 0
15 15.0 10.0 10.0 20.0 32 42 40 0 0 0 0 0 0 0 0 1 1
16 30.0 5.0 10.0 8.0 61 71 44 1 0 0 0 0 0 1 1 0 0
17 10.0 20.0 10.0 19.0 75 85 30 0 0 1 0 0 0 0 1 0 1
18 5.0 30.0 10.0 2.0 157 167 27 0 0 1 1 1 0 0 0 0 0
19 20.0 40.0 10.0 12.0 87 97 53 0 0 0 0 0 0 0 1 0 0
20 15.0 60.0 10.0 17.0 76 86 83 0 0 0 0 1 0 0 0 0 1
21 45.0 65.0 10.0 9.0 126 136 2 0 0 1 0 0 0 0 0 0 1
22 45.0 20.0 10.0 11.0 0 201 24 1 0 0 0 1 0 0 0 1 0
23 45.0 10.0 10.0 18.0 97 107 38 0 1 0 0 0 0 0 0 0 0
24 55.0 5.0 10.0 29.0 68 78 25 0 0 0 0 0 0 0 1 0 0
25 65.0 35.0 10.0 3.0 153 163 94 0 0 1 0 0 0 0 0 0 1
26 65.0 20.0 10.0 6.0 172 182 77 0 0 0 0 0 0 0 0 1 0
27 45.0 30.0 10.0 17.0 0 208 7 0 0 0 0 1 0 1 0 0 0
28 35.0 40.0 10.0 16.0 37 47 59 0 0 0 0 0 0 0 1 0 1
29 41.0 37.0 10.0 16.0 39 49 91 1 0 0 1 0 0 0 1 0 1
30 64.0 42.0 10.0 9.0 63 73 41 0 0 0 1 0 1 0 0 0 1
31 40.0 60.0 10.0 21.0 71 81 54 0 0 0 1 0 0 0 0 0 0
32 31.0 52.0 10.0 27.0 0 202 1 0 0 0 0 0 1 0 0 0 0
33 35.0 69.0 10.0 23.0 141 151 76 0 0 0 0 0 1 0 0 0 0
34 53.0 52.0 10.0 11.0 37 47 1 0 0 0 0 0 1 0 0 0 0
35 65.0 55.0 10.0 14.0 0 183 45 0 0 0 0 0 1 0 0 0 0
36 63.0 65.0 10.0 8.0 143 153 7 0 1 0 0 0 0 1 0 0 1
37 2.0 60.0 10.0 5.0 41 51 4 0 1 0 0 0 0 0 0 0 0
38 20.0 20.0 10.0 8.0 0 198 69 0 0 0 0 0 0 1 0 1 0
39 5.0 5.0 10.0 16.0 83 93 29 0 0 0 0 1 0 0 0 0 0
40 60.0 12.0 10.0 31.0 44 54 36 0 0 0 1 0 0 0 1 0 0
41 40.0 25.0 10.0 9.0 85 95 87 1 1 0 1 1 0 0 0 0 0
42 42.0 7.0 10.0 5.0 97 107 44 0 1 0 0 0 0 0 0 0 0
43 24.0 12.0 10.0 5.0 31 41 86 0 0 0 0 1 0 1 0 0 0
44 23.0 3.0 10.0 7.0 132 142 77 0 0 0 0 0 1 0 0 0 0
45 11.0 14.0 10.0 18.0 69 79 79 0 1 0 0 0 0 1 0 0 0
46 6.0 38.0 10.0 16.0 32 42 70 0 0 1 0 0 0 1 0 0 1
47 2.0 48.0 10.0 1.0 117 127 68 0 0 0 0 1 0 0 0 0 0
48 8.0 56.0 10.0 27.0 51 61 2 0 0 0 0 0 0 0 1 1 0
49 13.0 52.0 10.0 36.0 0 192 31 0 0 0 0 0 0 0 1 1 0
50 6.0 68.0 10.0 30.0 108 118 22 1 0 0 0 1 1 0 1 0 0
51 47.0 47.0 10.0 13.0 0 203 48 1 0 1 1 0 0 1 1 0 0
52 49.0 58.0 10.0 10.0 88 98 2 0 0 0 1 0 1 0 1 0 0
53 27.0 43.0 10.0 9.0 0 208 25 0 0 0 0 0 1 1 0 0 0
54 37.0 31.0 10.0 14.0 95 105 6 1 0 0 0 0 0 1 0 0 0
55 57.0 29.0 10.0 18.0 140 150 69 0 0 0 0 1 0 0 0 1 1
56 63.0 23.0 10.0 2.0 136 146 59 0 0 0 0 0 0 1 1 0 0
57 53.0 12.0 10.0 6.0 130 140 98 0 0 0 0 0 0 1 0 0 0
58 32.0 12.0 10.0 7.0 101 111 41 0 0 0 0 0 1 0 0 0 0
59 36.0 26.0 10.0 18.0 200 210 55 0 0 0 0 0 0 1 1 1 1
60 21.0 24.0 10.0 28.0 0 202 69 0 0 0 0 0 1 0 0 0 1
61 17.0 34.0 10.0 3.0 162 172 47 1 0 0 0 0 0 0 0 0 0
62 12.0 24.0 10.0 13.0 76 86 11 1 0 0 0 0 0 0 1 0 0
63 24.0 58.0 10.0 19.0 58 68 82 1 0 0 0 0 0 0 0 1 0
64 27.0 69.0 10.0 10.0 34 44 97 1 0 1 0 0 0 1 0 1 0
65 15.0 77.0 10.0 9.0 73 83 17 1 0 0 0 0 0 1 0 0 0
66 62.0 77.0 10.0 20.0 51 61 89 0 1 1 1 0 0 0 0 0 0
67 49.0 73.0 10.0 25.0 127 137 74 0 0 0 0 0 1 0 0 0 0
68 67.0 5.0 10.0 25.0 83 93 32 0 0 0 1 0 0 1 0 0 0
69 56.0 39.0 10.0 36.0 142 152 4 0 0 0 0 0 0 1 1 0 1
70 37.0 47.0 10.0 6.0 50 60 81 1 0 0 1 0 0 0 0 0 0
71 37.0 56.0 10.0 5.0 182 192 58 0 0 0 0 1 0 0 0 0 0
72 57.0 68.0 10.0 15.0 77 87 14 1 0 0 0 0 1 1 0 0 0
73 47.0 16.0 10.0 25.0 0 197 25 0 0 0 0 0 0 0 0 0 1
74 44.0 17.0 10.0 9.0 78 88 71 0 0 0 0 1 0 1 0 1 1
75 46.0 13.0 10.0 8.0 149 159 90 0 0 0 0 1 0 0 1 0 0
76 49.0 11.0 10.0 18.0 0 192 1 1 0 0 0 0 0 0 0 1 0
77 49.0 42.0 10.0 13.0 73 83 71 1 0 1 0 1 0 0 1 0 1
78 53.0 43.0 10.0 14.0 179 189 26 0 0 0 0 0 1 0 0 0 0
79 61.0 52.0 10.0 3.0 96 106 56 0 0 1 1 0 0 0 0 0 0
80 57.0 48.0 10.0 23.0 92 102 1 0 1 1 0 0 0 0 0 0 0
81 56.0 37.0 10.0 6.0 182 192 97 0 0 0 0 0 1 0 0 0 0
82 55.0 54.0 10.0 26.0 94 104 32 0 1 0 0 0 0 0 0 0 0
83 15.0 47.0 10.0 16.0 0 196 40 0 0 0 0 0 0 0 0 0 1
84 14.0 37.0 10.0 11.0 0 198 81 0 0 1 0 0 0 1 0 0 0
85 11.0 31.0 10.0 7.0 101 111 67 0 0 0 0 0 0 0 1 0 1
86 16.0 22.0 10.0 41.0 0 196 72 0 0 0 0 0 0 0 1 0 0
87 4.0 18.0 10.0 35.0 94 104 92 0 0 1 0 1 0 0 0 1 0
88 28.0 18.0 10.0 26.0 93 103 13 0 1 1 0 0 0 0 1 0 0
89 26.0 52.0 10.0 9.0 74 84 11 0 1 0 0 0 0 0 0 1 1
90 26.0 35.0 10.0 15.0 176 186 46 0 0 1 1 0 0 0 0 0 0
91 31.0 67.0 10.0 3.0 95 105 60 1 0 1 0 0 0 0 0 0 0
92 15.0 19.0 10.0 1.0 0 194 63 0 1 0 0 0 0 0 0 0 1
93 22.0 22.0 10.0 2.0 18 28 39 0 0 0 1 1 0 0 1 0 1
94 18.0 24.0 10.0 22.0 188 198 98 0 0 0 0 0 1 1 0 0 1
95 26.0 27.0 10.0 27.0 0 207 65 0 0 0 0 0 0 0 1 1 0
96 25.0 24.0 10.0 20.0 0 205 1 0 1 0 0 0 0 0 0 0 1
97 22.0 27.0 10.0 11.0 0 204 28 0 0 1 0 0 0 0 0 0 1
98 25.0 21.0 10.0 12.0 133 143 39 0 0 0 0 0 1 0 0 1 0
99 19.0 21.0 10.0 10.0 0 198 29 0 0 0 0 0 1 0 0 0 0
100 20.0 26.0 10.0 9.0 83 93 89 0 0 0 0 0 1 0 0 1 0
101 18.0 18.0 10.0 17.0 185 195 97 0 0 0 0 0 1 0 0 0 0